101 669
1 50 33 81 9 51 30 70 10 63 90 32 20 66 71 65 35 34 78 79 3 77 76 12 80 68 29 24 54 55 25 4 39 67 23 56 75 72 21 73 74 22 41 2 57 97 95 94 6 89 52 18 7 88 31 62 19 11 64 49 36 47 48 82 8 46 45 83 60 5 84 17 61 93 99 96 59 92 37 98 91 100 85 16 86 44 38 14 43 15 42 87 13 101 53 58 40 26 28 27 69 
